50 2152
210 414 804 404 461 577 469 827 994 706 579 755 95 346 619 308 994 98 78 185 269 79 424 568 277 894 964 471 62 472 369 152 384 303 895 357 173 631 626 795 48 829 517 123 830 179 48 12 264 905 
697 602 500 369 822 431 167 889 767 152 349 217 958 626 670 682 735 998 411 428 455 365 718 436 358 94 460 717 511 909 139 49 237 555 502 719 326 226 302 268 801 399 40 43 305 488 339 335 961 630 
